DIR: 0.0, EFF: 0.1, INT: 0.3, OBJ: 0.6
original problem has 232 variables (211 bin, 21 int, 0 impl, 0 cont) and 199 constraints
unknown variable <t_X00232> in line 2 of solution file </mnt/lscratch/users/dferrario/Adaptive-Cutsel-MILP/TransformedSolutions/22433__trans__seed__1.sol>
  (further unknown variables are ignored)
1/1 feasible solution given by solution candidate storage, new primal bound 2.147700e+04

presolving:
   (0.0s) running MILP presolver
   (0.0s) MILP presolver found nothing
   (0.0s) probing: 51/211 (24.2%) - 0 fixings, 0 aggregations, 0 implications, 0 bound changes
   (0.0s) probing aborted: 50/50 successive totally useless probings
presolving (1 rounds: 1 fast, 1 medium, 1 exhaustive):
 20 deleted vars, 1 deleted constraints, 1 added constraints, 1 tightened bounds, 0 added holes, 228 changed sides, 228 changed coefficients
 0 implications, 5 cliques
presolved problem has 212 variables (211 bin, 0 int, 1 impl, 0 cont) and 199 constraints
     67 constraints of type <knapsack>
      5 constraints of type <setppc>
      2 constraints of type <linear>
    125 constraints of type <logicor>
transformed objective value is always integral (scale: 1)
Presolving Time: 0.04

 time | node  | left  |LP iter|LP it/n|mem/heur|mdpt |vars |cons |rows |cuts |sepa|confs|strbr|  dualbound   | primalbound  |  gap   | compl. 
  0.1s|     1 |     0 |   689 |     - |  4016k |   0 | 212 | 199 | 199 |   0 |  0 |   0 |   0 | 2.124100e+04 | 2.147700e+04 |   1.11%| unknown
Computing relative interior point (time limit: 1e+20, iter limit: 6890) ...
  0.4s|     1 |     0 |   835 |     - |    12M |   0 | 212 | 199 | 209 |  10 |  1 |   0 |   0 | 2.127753e+04 | 2.147700e+04 |   0.94%| unknown
  0.5s|     1 |     0 |   970 |     - |    17M |   0 | 213 | 199 | 219 |  20 |  2 |   0 |   0 | 2.127753e+04 | 2.147700e+04 |   0.94%| unknown
  0.5s|     1 |     0 |   970 |     - |    17M |   0 | 213 | 199 | 219 |  20 |  2 |   0 |   0 | 2.129664e+04 | 2.147700e+04 |   0.85%| unknown
  0.7s|     1 |     0 |  1118 |     - |    22M |   0 | 213 | 199 | 229 |  30 |  3 |   0 |   0 | 2.131599e+04 | 2.147700e+04 |   0.76%| unknown
  0.9s|     1 |     0 |  1311 |     - |    27M |   0 | 213 | 199 | 239 |  40 |  4 |   0 |   0 | 2.132456e+04 | 2.147700e+04 |   0.71%| unknown
  1.1s|     1 |     0 |  1527 |     - |    32M |   0 | 213 | 199 | 249 |  50 |  5 |   0 |   0 | 2.132842e+04 | 2.147700e+04 |   0.70%| unknown
  1.4s|     1 |     0 |  1748 |     - |    38M |   0 | 213 | 199 | 259 |  60 |  6 |   0 |   0 | 2.133280e+04 | 2.147700e+04 |   0.68%| unknown
  1.7s|     1 |     0 |  1888 |     - |    44M |   0 | 213 | 199 | 262 |  70 |  7 |   0 |   0 | 2.133591e+04 | 2.147700e+04 |   0.66%| unknown
  2.0s|     1 |     0 |  2126 |     - |    53M |   0 | 213 | 199 | 271 |  79 |  8 |   0 |   0 | 2.133753e+04 | 2.147700e+04 |   0.65%| unknown
  2.3s|     1 |     0 |  2180 |     - |    59M |   0 | 213 | 199 | 281 |  89 |  9 |   0 |   0 | 2.133877e+04 | 2.147700e+04 |   0.65%| unknown
slurmstepd: error: *** JOB 3833535 ON iris-111 CANCELLED AT 2025-02-01T22:21:20 ***
